61
100
80	11
79	15
78	15
77	18
76	20
75	15
74	12
73	13
72	19
71	14
70	20
69	19
68	16
67	18
66	18
65	14
64	14
63	11
62	10
61	16
60	24
59	18
58	14
57	20
56	16
55	10
54	18
53	12
52	12
51	13
50	13
49	18
48	14
47	16
46	22
45	17
44	19
43	19
42	16
41	14
40	15
39	21
38	14
37	13
36	18
35	19
34	16
33	23
32	21
31	11
30	15
29	21
28	21
27	14
26	26
25	13
24	19
23	13
22	18
21	20
20	16
